c Generated map
c Size: 12 * 12, weights in range: 1 to 10, walls: True, with ratio 0.05
c dim 3 of 5
c
p sp 144 238
c graph contains 144 nodes and 238 arcs
c
a 1 13 5
a 13 1 5
a 1 2 2
a 2 1 2
a 2 14 6
a 14 2 6
a 2 3 2
a 3 2 2
a 3 4 6
a 4 3 6
a 4 16 8
a 16 4 8
a 4 5 1
a 5 4 1
a 5 17 5
a 17 5 5
a 5 6 7
a 6 5 7
a 6 18 6
a 18 6 6
a 6 7 9
a 7 6 9
a 7 19 10
a 19 7 10
a 7 8 10
a 8 7 10
a 8 20 8
a 20 8 8
a 8 9 5
a 9 8 5
a 9 21 8
a 21 9 8
a 9 10 8
a 10 9 8
a 10 22 2
a 22 10 2
a 12 24 7
a 24 12 7
a 13 25 9
a 25 13 9
a 13 14 6
a 14 13 6
a 14 26 8
a 26 14 8
a 16 28 5
a 28 16 5
a 16 17 2
a 17 16 2
a 17 29 1
a 29 17 1
a 17 18 3
a 18 17 3
a 18 30 4
a 30 18 4
a 18 19 10
a 19 18 10
a 19 31 1
a 31 19 1
a 19 20 10
a 20 19 10
a 20 32 5
a 32 20 5
a 20 21 10
a 21 20 10
a 21 33 10
a 33 21 10
a 21 22 6
a 22 21 6
a 22 34 2
a 34 22 2
a 22 23 2
a 23 22 2
a 23 35 1
a 35 23 1
a 23 24 6
a 24 23 6
a 24 36 4
a 36 24 4
a 25 37 8
a 37 25 8
a 25 26 1
a 26 25 1
a 26 38 3
a 38 26 3
a 26 27 6
a 27 26 6
a 27 39 1
a 39 27 1
a 27 28 9
a 28 27 9
a 28 40 8
a 40 28 8
a 28 29 7
a 29 28 7
a 29 41 10
a 41 29 10
a 29 30 8
a 30 29 8
a 30 42 3
a 42 30 3
a 30 31 2
a 31 30 2
a 31 43 8
a 43 31 8
a 31 32 9
a 32 31 9
a 32 44 5
a 44 32 5
a 32 33 3
a 33 32 3
a 33 45 4
a 45 33 4
a 33 34 7
a 34 33 7
a 34 46 7
a 46 34 7
a 34 35 1
a 35 34 1
a 35 36 8
a 36 35 8
a 36 48 3
a 48 36 3
a 37 49 6
a 49 37 6
a 37 38 2
a 38 37 2
a 38 50 2
a 50 38 2
a 38 39 1
a 39 38 1
a 39 51 1
a 51 39 1
a 39 40 7
a 40 39 7
a 40 52 2
a 52 40 2
a 40 41 9
a 41 40 9
a 41 53 6
a 53 41 6
a 41 42 2
a 42 41 2
a 42 54 9
a 54 42 9
a 42 43 8
a 43 42 8
a 43 55 5
a 55 43 5
a 43 44 6
a 44 43 6
a 44 56 6
a 56 44 6
a 44 45 10
a 45 44 10
a 45 57 10
a 57 45 10
a 45 46 2
a 46 45 2
a 46 58 9
a 58 46 9
a 48 60 10
a 60 48 10
a 49 61 1
a 61 49 1
a 49 50 2
a 50 49 2
a 50 62 6
a 62 50 6
a 50 51 7
a 51 50 7
a 51 63 4
a 63 51 4
a 51 52 4
a 52 51 4
a 52 64 3
a 64 52 3
a 52 53 7
a 53 52 7
a 53 65 2
a 65 53 2
a 53 54 5
a 54 53 5
a 54 66 3
a 66 54 3
a 54 55 8
a 55 54 8
a 55 67 2
a 67 55 2
a 55 56 6
a 56 55 6
a 56 68 6
a 68 56 6
a 56 57 6
a 57 56 6
a 57 69 2
a 69 57 2
a 57 58 2
a 58 57 2
a 58 70 2
a 70 58 2
a 58 59 2
a 59 58 2
a 59 71 8
a 71 59 8
a 59 60 2
a 60 59 2
a 60 72 7
a 72 60 7
a 61 73 3
a 73 61 3
a 61 62 7
a 62 61 7
a 62 74 5
a 74 62 5
a 62 63 5
a 63 62 5
a 63 64 6
a 64 63 6
a 64 76 7
a 76 64 7
a 64 65 5
a 65 64 5
a 65 77 6
a 77 65 6
a 65 66 8
a 66 65 8
a 66 78 3
a 78 66 3
a 66 67 5
a 67 66 5
a 67 79 5
a 79 67 5
a 67 68 6
a 68 67 6
a 68 80 6
a 80 68 6
a 68 69 8
a 69 68 8
a 69 70 6
a 70 69 6
a 70 82 9
a 82 70 9
a 70 71 8
a 71 70 8
a 71 83 5
a 83 71 5
a 71 72 5
a 72 71 5
a 72 84 8
a 84 72 8
a 73 85 1
a 85 73 1
a 73 74 8
a 74 73 8
a 74 86 7
a 86 74 7
a 76 88 8
a 88 76 8
a 76 77 2
a 77 76 2
a 77 89 6
a 89 77 6
a 77 78 8
a 78 77 8
a 78 90 6
a 90 78 6
a 78 79 3
a 79 78 3
a 79 91 7
a 91 79 7
a 79 80 4
a 80 79 4
a 80 92 1
a 92 80 1
a 82 94 9
a 94 82 9
a 82 83 3
a 83 82 3
a 83 95 1
a 95 83 1
a 83 84 2
a 84 83 2
a 84 96 1
a 96 84 1
a 85 97 10
a 97 85 10
a 85 86 9
a 86 85 9
a 86 98 9
a 98 86 9
a 86 87 7
a 87 86 7
a 87 99 2
a 99 87 2
a 87 88 5
a 88 87 5
a 88 100 7
a 100 88 7
a 88 89 8
a 89 88 8
a 89 101 3
a 101 89 3
a 89 90 7
a 90 89 7
a 90 102 9
a 102 90 9
a 90 91 4
a 91 90 4
a 91 103 5
a 103 91 5
a 91 92 1
a 92 91 1
a 92 104 5
a 104 92 5
a 92 93 2
a 93 92 2
a 93 105 9
a 105 93 9
a 93 94 7
a 94 93 7
a 94 106 4
a 106 94 4
a 94 95 1
a 95 94 1
a 95 107 10
a 107 95 10
a 95 96 4
a 96 95 4
a 96 108 8
a 108 96 8
a 97 109 3
a 109 97 3
a 97 98 5
a 98 97 5
a 98 99 1
a 99 98 1
a 99 111 4
a 111 99 4
a 99 100 8
a 100 99 8
a 100 112 10
a 112 100 10
a 100 101 8
a 101 100 8
a 101 113 1
a 113 101 1
a 101 102 9
a 102 101 9
a 102 114 8
a 114 102 8
a 102 103 6
a 103 102 6
a 103 115 2
a 115 103 2
a 103 104 2
a 104 103 2
a 104 116 9
a 116 104 9
a 104 105 4
a 105 104 4
a 105 117 9
a 117 105 9
a 105 106 10
a 106 105 10
a 106 118 1
a 118 106 1
a 106 107 8
a 107 106 8
a 107 119 10
a 119 107 10
a 107 108 1
a 108 107 1
a 108 120 10
a 120 108 10
a 109 121 4
a 121 109 4
a 111 123 1
a 123 111 1
a 111 112 7
a 112 111 7
a 112 124 2
a 124 112 2
a 112 113 6
a 113 112 6
a 113 125 8
a 125 113 8
a 113 114 4
a 114 113 4
a 114 126 5
a 126 114 5
a 114 115 7
a 115 114 7
a 115 127 10
a 127 115 10
a 115 116 7
a 116 115 7
a 116 128 6
a 128 116 6
a 116 117 7
a 117 116 7
a 117 129 8
a 129 117 8
a 117 118 9
a 118 117 9
a 118 130 5
a 130 118 5
a 118 119 6
a 119 118 6
a 119 131 8
a 131 119 8
a 119 120 4
a 120 119 4
a 120 132 8
a 132 120 8
a 121 133 7
a 133 121 7
a 121 122 5
a 122 121 5
a 122 134 9
a 134 122 9
a 122 123 3
a 123 122 3
a 123 135 10
a 135 123 10
a 123 124 8
a 124 123 8
a 124 125 3
a 125 124 3
a 125 137 1
a 137 125 1
a 125 126 3
a 126 125 3
a 126 138 8
a 138 126 8
a 126 127 10
a 127 126 10
a 127 139 10
a 139 127 10
a 127 128 7
a 128 127 7
a 128 140 1
a 140 128 1
a 128 129 9
a 129 128 9
a 129 141 3
a 141 129 3
a 129 130 1
a 130 129 1
a 130 142 6
a 142 130 6
a 130 131 5
a 131 130 5
a 131 143 7
a 143 131 7
a 131 132 2
a 132 131 2
a 132 144 10
a 144 132 10
a 133 134 8
a 134 133 8
a 134 135 4
a 135 134 4
a 137 138 2
a 138 137 2
a 138 139 2
a 139 138 2
a 139 140 3
a 140 139 3
a 140 141 8
a 141 140 8
a 141 142 6
a 142 141 6
a 142 143 10
a 143 142 10
a 143 144 1
a 144 143 1
